p tw 54 106
0 1
0 2
0 4
0 10
1 2
1 3
1 52
2 11
2 16
3 4
3 5
3 52
4 5
4 10
5 29
5 50
6 7
6 8
6 23
6 24
7 8
7 32
7 51
8 18
8 19
9 10
9 11
9 15
9 20
10 11
11 16
12 13
12 14
12 27
12 34
13 14
13 42
13 48
14 25
14 53
15 16
15 17
15 20
16 17
17 22
17 37
18 19
18 23
18 24
19 44
19 51
20 21
20 22
21 22
21 38
21 46
22 37
23 24
25 26
25 27
25 53
26 27
26 33
26 49
27 34
28 29
28 30
28 40
28 41
29 30
29 50
30 35
30 36
31 32
31 33
31 44
31 45
32 33
32 51
33 49
34 47
34 48
35 36
35 40
36 40
37 38
37 39
38 39
38 46
39 42
39 43
40 41
41 50
41 52
42 43
42 48
43 46
43 47
44 45
44 51
45 49
45 53
46 47
47 48
49 53
50 52
